Running MiniSat on FULL_RUN_MINISAT\74f145bb935650f5c982d7eec6967945-pcmax-scheduling-m43-38782-385402-SAT.sanitized.cnf... 
============================[ Problem Statistics ]=============================
|                                                                             |
|  Number of variables:         38781                                         |
|  Number of clauses:          362841                                         |
|  Parse time:                   0.59 s                                       |
|                                                                             |
============================[ Search Statistics ]==============================
| Conflicts |          ORIGINAL         |          LEARNT          | Progress |
|           |    Vars  Clauses Literals |    Limit  Clauses Lit/Cl |          |
===============================================================================
|       100 |   37645   325810   913046 |   119463      100      4 |  2.929 % |
|       250 |   37645   325810   913046 |   131410      250      4 |  2.929 % |
|       475 |   37645   325810   913046 |   144551      475      4 |  2.929 % |
|       812 |   37645   325810   913046 |   159006      812      4 |  2.929 % |
|      1318 |   37645   325810   913046 |   174906     1318      6 |  2.929 % |
|      2077 |   37645   325810   913046 |   192397     2077     13 |  2.929 % |
|      3216 |   37645   325810   913046 |   211637     3216     37 |  2.929 % |
|      4924 |   37645   325810   913046 |   232800     4924     45 |  2.929 % |
|      7486 |   37645   325810   913046 |   256080     7486     95 |  2.929 % |
|     11330 |   37644   325776   912977 |   281689    11326    122 |  2.932 % |
|     17096 |   37644   325776   912977 |   309857    17092    144 |  2.932 % |
|     25745 |   37643   325743   912898 |   340843    25739    172 |  2.934 % |
|     38719 |   37643   325743   912898 |   374928    38713    182 |  2.934 % |
ERROR: MiniSat process not found for FULL_RUN_MINISAT\7f1c7da531539f3be4a1e0e916913086-pcmax-scheduling-m19-2974-16501-UNSAT.sanitized.cnf 
Finished MiniSat on FULL_RUN_MINISAT\7f1c7da531539f3be4a1e0e916913086-pcmax-scheduling-m19-2974-16501-UNSAT.sanitized.cnf 